g3 0 1 0	# problem circle
 3 10 1 0 0	# vars, constraints, objectives, ranges, eqns
 10 0	# nonlinear constraints, objectives
 0 0	# network constraints: nonlinear, linear
 3 0 0	# nonlinear vars in constraints, objectives, both
 0 0 0 1	# linear network variables; functions; arith, flags
 0 0 0 0 0	# discrete variables: binary, integer, nonlinear (b,c,o)
 30 1	# nonzeros in Jacobian, gradients
 0 0	# max name lengths: constraints, variables
 0 0 0 0 0	# common exprs: b,c,o,c1,o1
b
3
3
2 0
x3
0 5.155228315
1 5.793541075
2 5.49209550544626
r
1 0
1 0
1 0
1 0
1 0
1 0
1 0
1 0
1 0
1 0
C0
o54
3
o5
o1
n2.545724188
v0
n2
o5
o1
n9.983058643
v1
n2
o16
o5
v2
n2
C1
o54
3
o5
o1
n8.589400372
v0
n2
o5
o1
n6.208600402
v1
n2
o16
o5
v2
n2
C2
o54
3
o5
o1
n5.953378204
v0
n2
o5
o1
n9.920197351
v1
n2
o16
o5
v2
n2
C3
o54
3
o5
o1
n3.710241136
v0
n2
o5
o1
n7.860254203
v1
n2
o16
o5
v2
n2
C4
o54
3
o5
o1
n3.629909053
v0
n2
o5
o1
n2.176232347
v1
n2
o16
o5
v2
n2
C5
o54
3
o5
o1
n3.016475803
v0
n2
o5
o1
n6.757468831
v1
n2
o16
o5
v2
n2
C6
o54
3
o5
o1
n4.148474536
v0
n2
o5
o1
n2.435660776
v1
n2
o16
o5
v2
n2
C7
o54
3
o5
o1
n8.706433123
v0
n2
o5
o1
n3.250724797
v1
n2
o16
o5
v2
n2
C8
o54
3
o5
o1
n1.604023507
v0
n2
o5
o1
n7.020357481
v1
n2
o16
o5
v2
n2
C9
o54
3
o5
o1
n5.501896021
v0
n2
o5
o1
n4.918207429
v1
n2
o16
o5
v2
n2
O0 0
n0
k2
10
20
J0 3
0 0
1 0
2 0
J1 3
0 0
1 0
2 0
J2 3
0 0
1 0
2 0
J3 3
0 0
1 0
2 0
J4 3
0 0
1 0
2 0
J5 3
0 0
1 0
2 0
J6 3
0 0
1 0
2 0
J7 3
0 0
1 0
2 0
J8 3
0 0
1 0
2 0
J9 3
0 0
1 0
2 0
G0 1
2 1
